c Cardinality constraint <=k(x_1,...,x_n) for k = 4 and n = 5.
p cnf 21 32
-1 6 0
-7 0
-8 0
-9 0
-2 10 0
-6 10 0
-2 -6 11 0
-7 11 0
-2 -7 12 0
-8 12 0
-2 -8 13 0
-9 13 0
-2 -9 0
-3 14 0
-10 14 0
-3 -10 15 0
-11 15 0
-3 -11 16 0
-12 16 0
-3 -12 17 0
-13 17 0
-3 -13 0
-4 18 0
-14 18 0
-4 -14 19 0
-15 19 0
-4 -15 20 0
-16 20 0
-4 -16 21 0
-17 21 0
-4 -17 0
-5 -21 0
